/* Objective function */
min: +0.001 C1 +0.13 C2 +0.2 C3 +4.4 C4 +0.206 C5 +0.15 C6 +0.1 C7 +0.2004 C8 +0.0095 C9;

/* Constraints */
Nutr726Abs: +42 C1 +14.9 C2 +34.8 C4 >= 1;
Nutr726Abs': +42 C1 +14.9 C2 +34.8 C4 <= 1;
Nutr729Abs: +5 >= +C1 +4.19999982 C4 +24.9066 C6 >= 3;
Nutr729Abs': -1 <= +C1 +4.19999982 C4 +24.9066 C6 <= 1;
Nutr666Abs: +1.7 C2 +49.8132 C6 >= 2;
Nutr666Abs': +1.7 C2 +49.8132 C6 <= 2;
Nutr659Abs: +99.6264010001 C6 <= 4;
Nutr649/643Rel1: +30.64 C1 -10.431 C2 -41.0435 C3 -48.3900003 C4 -9.405 C5 -44.500763 C6 +12.804 C7 +52.75 C8 +4.807 C9 >= 0;
Nutr649/643Rel2: +29.76 C1 -10.614 C2 -41.939 C3 -49.2600003 C4 -9.57 C5 -45.303763 C6 +12.576 C7 +51.9 C8 +4.598 C9 <= 0;
CombSum1Abs: +C9 <= 0.0361;
CombCon2Rel1: +10.2 C1 -12.255 C2 -1.5675 C3 -1.95 C4 -12.525 C5 -2.955 C6 +65.62 C7 +12.75 C8 +67.235 C9 <= 0;
total: +2.5 >= +C1 +C2 +C3 +C4 +C5 +C6 +C7 +C8 +C9 >= 1.7;

/* Variable bounds */
0.01 <= C3 <= 0.53;
C4 <= 0.4;
C5 >= 0.0314;
C6 <= 0.011;
C7 <= 0.08;
C9 = 0;
